p cnf 491 1665
c p weight -195 1 0
c p weight 195 -1 0
c p weight 199 6.12323399573676603586882014729198302312846062338790031898128063403419218957424163818359375E-17 0
c p weight -199 1 0
c p weight 200 1 0
c p weight -200 1 0
c p weight -197 1 0
c p weight 197 -1 0
c p weight -201 1 0
c p weight 201 -1 0
c p weight -203 1 0
c p weight 203 -1 0
c p weight -206 1 0
c p weight 206 -1 0
c p weight -209 1 0
c p weight 209 -1 0
c p weight -212 1 0
c p weight 212 -1 0
c p weight -215 1 0
c p weight 215 -1 0
c p weight -218 1 0
c p weight 218 -1 0
c p weight -221 1 0
c p weight 221 -1 0
c p weight -224 1 0
c p weight 224 -1 0
c p weight -227 1 0
c p weight 227 -1 0
c p weight -230 1 0
c p weight 230 -1 0
c p weight -233 1 0
c p weight 233 -1 0
c p weight -236 1 0
c p weight 236 -1 0
c p weight -239 1 0
c p weight 239 -1 0
c p weight -242 1 0
c p weight 242 -1 0
c p weight -245 1 0
c p weight 245 -1 0
c p weight -248 1 0
c p weight 248 -1 0
c p weight -251 1 0
c p weight 251 -1 0
c p weight -254 1 0
c p weight 254 -1 0
c p weight -257 1 0
c p weight 257 -1 0
c p weight -260 1 0
c p weight 260 -1 0
c p weight -263 1 0
c p weight 263 -1 0
c p weight -266 1 0
c p weight 266 -1 0
c p weight -269 1 0
c p weight 269 -1 0
c p weight -272 1 0
c p weight 272 -1 0
c p weight -275 1 0
c p weight 275 -1 0
c p weight -278 1 0
c p weight 278 -1 0
c p weight -281 1 0
c p weight 281 -1 0
c p weight -284 1 0
c p weight 284 -1 0
c p weight -287 1 0
c p weight 287 -1 0
c p weight -290 1 0
c p weight 290 -1 0
c p weight -293 1 0
c p weight 293 -1 0
c p weight -296 1 0
c p weight 296 -1 0
c p weight -299 1 0
c p weight 299 -1 0
c p weight -302 1 0
c p weight 302 -1 0
c p weight -305 1 0
c p weight 305 -1 0
c p weight -308 1 0
c p weight 308 -1 0
c p weight -311 1 0
c p weight 311 -1 0
c p weight -314 1 0
c p weight 314 -1 0
c p weight -317 1 0
c p weight 317 -1 0
c p weight -320 1 0
c p weight 320 -1 0
c p weight -323 1 0
c p weight 323 -1 0
c p weight -326 1 0
c p weight 326 -1 0
c p weight -329 1 0
c p weight 329 -1 0
c p weight -332 1 0
c p weight 332 -1 0
c p weight -335 1 0
c p weight 335 -1 0
c p weight -338 1 0
c p weight 338 -1 0
c p weight -341 1 0
c p weight 341 -1 0
c p weight -344 1 0
c p weight 344 -1 0
c p weight -347 1 0
c p weight 347 -1 0
c p weight -350 1 0
c p weight 350 -1 0
c p weight -353 1 0
c p weight 353 -1 0
c p weight -356 1 0
c p weight 356 -1 0
c p weight -359 1 0
c p weight 359 -1 0
c p weight -362 1 0
c p weight 362 -1 0
c p weight -365 1 0
c p weight 365 -1 0
c p weight -368 1 0
c p weight 368 -1 0
c p weight -371 1 0
c p weight 371 -1 0
c p weight -374 1 0
c p weight 374 -1 0
c p weight -377 1 0
c p weight 377 -1 0
c p weight -380 1 0
c p weight 380 -1 0
c p weight -383 1 0
c p weight 383 -1 0
c p weight -386 1 0
c p weight 386 -1 0
c p weight -389 1 0
c p weight 389 -1 0
c p weight -392 1 0
c p weight 392 -1 0
c p weight -395 1 0
c p weight 395 -1 0
c p weight -398 1 0
c p weight 398 -1 0
c p weight -401 1 0
c p weight 401 -1 0
c p weight -404 1 0
c p weight 404 -1 0
c p weight -407 1 0
c p weight 407 -1 0
c p weight -410 1 0
c p weight 410 -1 0
c p weight -413 1 0
c p weight 413 -1 0
c p weight -416 1 0
c p weight 416 -1 0
c p weight -419 1 0
c p weight 419 -1 0
c p weight -422 1 0
c p weight 422 -1 0
c p weight -425 1 0
c p weight 425 -1 0
c p weight -428 1 0
c p weight 428 -1 0
c p weight -431 1 0
c p weight 431 -1 0
c p weight -434 1 0
c p weight 434 -1 0
c p weight -437 1 0
c p weight 437 -1 0
c p weight -440 1 0
c p weight 440 -1 0
c p weight -443 1 0
c p weight 443 -1 0
c p weight -446 1 0
c p weight 446 -1 0
c p weight -449 1 0
c p weight 449 -1 0
c p weight -452 1 0
c p weight 452 -1 0
c p weight -455 1 0
c p weight 455 -1 0
c p weight -458 1 0
c p weight 458 -1 0
c p weight -461 1 0
c p weight 461 -1 0
c p weight -464 1 0
c p weight 464 -1 0
c p weight -467 1 0
c p weight 467 -1 0
c p weight -470 1 0
c p weight 470 -1 0
c p weight -473 1 0
c p weight 473 -1 0
c p weight -476 1 0
c p weight 476 -1 0
c p weight -479 1 0
c p weight 479 -1 0
c p weight -482 1 0
c p weight 482 -1 0
c p weight -485 1 0
c p weight 485 -1 0
c p weight -488 1 0
c p weight 488 -1 0
c p weight 491 0.5 0
c p weight -491 1 0
491 0
-193 0
-191 0
-189 0
-187 0
-185 0
-183 0
-181 0
-179 0
-177 0
-175 0
-173 0
-171 0
-169 0
-167 0
-165 0
-163 0
-161 0
-159 0
-157 0
-155 0
-153 0
-151 0
-149 0
-147 0
-145 0
-143 0
-141 0
-139 0
-137 0
-135 0
-133 0
-131 0
-129 0
-127 0
-125 0
-123 0
-121 0
-119 0
-117 0
-115 0
-113 0
-111 0
-109 0
-107 0
-105 0
-103 0
-101 0
-99 0
-97 0
-95 0
-93 0
-91 0
-89 0
-87 0
-85 0
-83 0
-81 0
-79 0
-77 0
-75 0
-73 0
-71 0
-69 0
-67 0
-65 0
-63 0
-61 0
-59 0
-57 0
-55 0
-53 0
-51 0
-49 0
-47 0
-45 0
-43 0
-41 0
-39 0
-37 0
-35 0
-33 0
-31 0
-29 0
-27 0
-25 0
-23 0
-21 0
-19 0
-17 0
-15 0
-13 0
-11 0
-9 0
-7 0
-5 0
-3 0
-1 0
-195 193 0
-195 194 0
195 -193 -194 0
196 193 -194 0
196 -193 194 0
-196 193 194 0
-196 -193 -194 0
-197 198 0
-197 196 0
-197 -193 0
197 -198 193 -196 0
198 -193 196 0
-198 193 196 0
-199 196 0
198 -199 -193 0
-198 -199 193 0
198 199 193 -196 0
-198 199 -193 -196 0
-200 196 0
198 -200 193 0
-198 -200 -193 0
198 200 -193 -196 0
-198 200 193 -196 0
-201 198 0
-201 196 0
201 -198 -196 0
202 198 -196 0
202 -198 196 0
-202 198 196 0
-202 -198 -196 0
-203 198 0
-203 192 0
-203 191 -202 0
-203 -191 202 0
203 -198 191 202 -192 0
203 -198 -191 -202 -192 0
205 198 -191 0
205 -198 191 0
-205 198 191 0
-205 -198 -191 0
204 202 -192 0
204 -202 192 0
-204 202 192 0
-204 -202 -192 0
-206 205 0
-206 190 0
-206 189 -192 0
-206 -189 192 0
206 -205 189 192 -190 0
206 -205 -189 -192 -190 0
208 205 -189 0
208 -205 189 0
-208 205 189 0
-208 -205 -189 0
207 192 -190 0
207 -192 190 0
-207 192 190 0
-207 -192 -190 0
-209 208 0
-209 188 0
-209 187 -190 0
-209 -187 190 0
209 -208 187 190 -188 0
209 -208 -187 -190 -188 0
211 208 -187 0
211 -208 187 0
-211 208 187 0
-211 -208 -187 0
210 190 -188 0
210 -190 188 0
-210 190 188 0
-210 -190 -188 0
-212 211 0
-212 186 0
-212 185 -188 0
-212 -185 188 0
212 -211 185 188 -186 0
212 -211 -185 -188 -186 0
214 211 -185 0
214 -211 185 0
-214 211 185 0
-214 -211 -185 0
213 188 -186 0
213 -188 186 0
-213 188 186 0
-213 -188 -186 0
-215 214 0
-215 184 0
-215 183 -186 0
-215 -183 186 0
215 -214 183 186 -184 0
215 -214 -183 -186 -184 0
217 214 -183 0
217 -214 183 0
-217 214 183 0
-217 -214 -183 0
216 186 -184 0
216 -186 184 0
-216 186 184 0
-216 -186 -184 0
-218 217 0
-218 182 0
-218 181 -184 0
-218 -181 184 0
218 -217 181 184 -182 0
218 -217 -181 -184 -182 0
220 217 -181 0
220 -217 181 0
-220 217 181 0
-220 -217 -181 0
219 184 -182 0
219 -184 182 0
-219 184 182 0
-219 -184 -182 0
-221 220 0
-221 180 0
-221 179 -182 0
-221 -179 182 0
221 -220 179 182 -180 0
221 -220 -179 -182 -180 0
223 220 -179 0
223 -220 179 0
-223 220 179 0
-223 -220 -179 0
222 182 -180 0
222 -182 180 0
-222 182 180 0
-222 -182 -180 0
-224 223 0
-224 178 0
-224 177 -180 0
-224 -177 180 0
224 -223 177 180 -178 0
224 -223 -177 -180 -178 0
226 223 -177 0
226 -223 177 0
-226 223 177 0
-226 -223 -177 0
225 180 -178 0
225 -180 178 0
-225 180 178 0
-225 -180 -178 0
-227 226 0
-227 176 0
-227 175 -178 0
-227 -175 178 0
227 -226 175 178 -176 0
227 -226 -175 -178 -176 0
229 226 -175 0
229 -226 175 0
-229 226 175 0
-229 -226 -175 0
228 178 -176 0
228 -178 176 0
-228 178 176 0
-228 -178 -176 0
-230 229 0
-230 174 0
-230 173 -176 0
-230 -173 176 0
230 -229 173 176 -174 0
230 -229 -173 -176 -174 0
232 229 -173 0
232 -229 173 0
-232 229 173 0
-232 -229 -173 0
231 176 -174 0
231 -176 174 0
-231 176 174 0
-231 -176 -174 0
-233 232 0
-233 172 0
-233 171 -174 0
-233 -171 174 0
233 -232 171 174 -172 0
233 -232 -171 -174 -172 0
235 232 -171 0
235 -232 171 0
-235 232 171 0
-235 -232 -171 0
234 174 -172 0
234 -174 172 0
-234 174 172 0
-234 -174 -172 0
-236 235 0
-236 170 0
-236 169 -172 0
-236 -169 172 0
236 -235 169 172 -170 0
236 -235 -169 -172 -170 0
238 235 -169 0
238 -235 169 0
-238 235 169 0
-238 -235 -169 0
237 172 -170 0
237 -172 170 0
-237 172 170 0
-237 -172 -170 0
-239 238 0
-239 168 0
-239 167 -170 0
-239 -167 170 0
239 -238 167 170 -168 0
239 -238 -167 -170 -168 0
241 238 -167 0
241 -238 167 0
-241 238 167 0
-241 -238 -167 0
240 170 -168 0
240 -170 168 0
-240 170 168 0
-240 -170 -168 0
-242 241 0
-242 166 0
-242 165 -168 0
-242 -165 168 0
242 -241 165 168 -166 0
242 -241 -165 -168 -166 0
244 241 -165 0
244 -241 165 0
-244 241 165 0
-244 -241 -165 0
243 168 -166 0
243 -168 166 0
-243 168 166 0
-243 -168 -166 0
-245 244 0
-245 164 0
-245 163 -166 0
-245 -163 166 0
245 -244 163 166 -164 0
245 -244 -163 -166 -164 0
247 244 -163 0
247 -244 163 0
-247 244 163 0
-247 -244 -163 0
246 166 -164 0
246 -166 164 0
-246 166 164 0
-246 -166 -164 0
-248 247 0
-248 162 0
-248 161 -164 0
-248 -161 164 0
248 -247 161 164 -162 0
248 -247 -161 -164 -162 0
250 247 -161 0
250 -247 161 0
-250 247 161 0
-250 -247 -161 0
249 164 -162 0
249 -164 162 0
-249 164 162 0
-249 -164 -162 0
-251 250 0
-251 160 0
-251 159 -162 0
-251 -159 162 0
251 -250 159 162 -160 0
251 -250 -159 -162 -160 0
253 250 -159 0
253 -250 159 0
-253 250 159 0
-253 -250 -159 0
252 162 -160 0
252 -162 160 0
-252 162 160 0
-252 -162 -160 0
-254 253 0
-254 158 0
-254 157 -160 0
-254 -157 160 0
254 -253 157 160 -158 0
254 -253 -157 -160 -158 0
256 253 -157 0
256 -253 157 0
-256 253 157 0
-256 -253 -157 0
255 160 -158 0
255 -160 158 0
-255 160 158 0
-255 -160 -158 0
-257 256 0
-257 156 0
-257 155 -158 0
-257 -155 158 0
257 -256 155 158 -156 0
257 -256 -155 -158 -156 0
259 256 -155 0
259 -256 155 0
-259 256 155 0
-259 -256 -155 0
258 158 -156 0
258 -158 156 0
-258 158 156 0
-258 -158 -156 0
-260 259 0
-260 154 0
-260 153 -156 0
-260 -153 156 0
260 -259 153 156 -154 0
260 -259 -153 -156 -154 0
262 259 -153 0
262 -259 153 0
-262 259 153 0
-262 -259 -153 0
261 156 -154 0
261 -156 154 0
-261 156 154 0
-261 -156 -154 0
-263 262 0
-263 152 0
-263 151 -154 0
-263 -151 154 0
263 -262 151 154 -152 0
263 -262 -151 -154 -152 0
265 262 -151 0
265 -262 151 0
-265 262 151 0
-265 -262 -151 0
264 154 -152 0
264 -154 152 0
-264 154 152 0
-264 -154 -152 0
-266 265 0
-266 150 0
-266 149 -152 0
-266 -149 152 0
266 -265 149 152 -150 0
266 -265 -149 -152 -150 0
268 265 -149 0
268 -265 149 0
-268 265 149 0
-268 -265 -149 0
267 152 -150 0
267 -152 150 0
-267 152 150 0
-267 -152 -150 0
-269 268 0
-269 148 0
-269 147 -150 0
-269 -147 150 0
269 -268 147 150 -148 0
269 -268 -147 -150 -148 0
271 268 -147 0
271 -268 147 0
-271 268 147 0
-271 -268 -147 0
270 150 -148 0
270 -150 148 0
-270 150 148 0
-270 -150 -148 0
-272 271 0
-272 146 0
-272 145 -148 0
-272 -145 148 0
272 -271 145 148 -146 0
272 -271 -145 -148 -146 0
274 271 -145 0
274 -271 145 0
-274 271 145 0
-274 -271 -145 0
273 148 -146 0
273 -148 146 0
-273 148 146 0
-273 -148 -146 0
-275 274 0
-275 144 0
-275 143 -146 0
-275 -143 146 0
275 -274 143 146 -144 0
275 -274 -143 -146 -144 0
277 274 -143 0
277 -274 143 0
-277 274 143 0
-277 -274 -143 0
276 146 -144 0
276 -146 144 0
-276 146 144 0
-276 -146 -144 0
-278 277 0
-278 142 0
-278 141 -144 0
-278 -141 144 0
278 -277 141 144 -142 0
278 -277 -141 -144 -142 0
280 277 -141 0
280 -277 141 0
-280 277 141 0
-280 -277 -141 0
279 144 -142 0
279 -144 142 0
-279 144 142 0
-279 -144 -142 0
-281 280 0
-281 140 0
-281 139 -142 0
-281 -139 142 0
281 -280 139 142 -140 0
281 -280 -139 -142 -140 0
283 280 -139 0
283 -280 139 0
-283 280 139 0
-283 -280 -139 0
282 142 -140 0
282 -142 140 0
-282 142 140 0
-282 -142 -140 0
-284 283 0
-284 138 0
-284 137 -140 0
-284 -137 140 0
284 -283 137 140 -138 0
284 -283 -137 -140 -138 0
286 283 -137 0
286 -283 137 0
-286 283 137 0
-286 -283 -137 0
285 140 -138 0
285 -140 138 0
-285 140 138 0
-285 -140 -138 0
-287 286 0
-287 136 0
-287 135 -138 0
-287 -135 138 0
287 -286 135 138 -136 0
287 -286 -135 -138 -136 0
289 286 -135 0
289 -286 135 0
-289 286 135 0
-289 -286 -135 0
288 138 -136 0
288 -138 136 0
-288 138 136 0
-288 -138 -136 0
-290 289 0
-290 134 0
-290 133 -136 0
-290 -133 136 0
290 -289 133 136 -134 0
290 -289 -133 -136 -134 0
292 289 -133 0
292 -289 133 0
-292 289 133 0
-292 -289 -133 0
291 136 -134 0
291 -136 134 0
-291 136 134 0
-291 -136 -134 0
-293 292 0
-293 132 0
-293 131 -134 0
-293 -131 134 0
293 -292 131 134 -132 0
293 -292 -131 -134 -132 0
295 292 -131 0
295 -292 131 0
-295 292 131 0
-295 -292 -131 0
294 134 -132 0
294 -134 132 0
-294 134 132 0
-294 -134 -132 0
-296 295 0
-296 130 0
-296 129 -132 0
-296 -129 132 0
296 -295 129 132 -130 0
296 -295 -129 -132 -130 0
298 295 -129 0
298 -295 129 0
-298 295 129 0
-298 -295 -129 0
297 132 -130 0
297 -132 130 0
-297 132 130 0
-297 -132 -130 0
-299 298 0
-299 128 0
-299 127 -130 0
-299 -127 130 0
299 -298 127 130 -128 0
299 -298 -127 -130 -128 0
301 298 -127 0
301 -298 127 0
-301 298 127 0
-301 -298 -127 0
300 130 -128 0
300 -130 128 0
-300 130 128 0
-300 -130 -128 0
-302 301 0
-302 126 0
-302 125 -128 0
-302 -125 128 0
302 -301 125 128 -126 0
302 -301 -125 -128 -126 0
304 301 -125 0
304 -301 125 0
-304 301 125 0
-304 -301 -125 0
303 128 -126 0
303 -128 126 0
-303 128 126 0
-303 -128 -126 0
-305 304 0
-305 124 0
-305 123 -126 0
-305 -123 126 0
305 -304 123 126 -124 0
305 -304 -123 -126 -124 0
307 304 -123 0
307 -304 123 0
-307 304 123 0
-307 -304 -123 0
306 126 -124 0
306 -126 124 0
-306 126 124 0
-306 -126 -124 0
-308 307 0
-308 122 0
-308 121 -124 0
-308 -121 124 0
308 -307 121 124 -122 0
308 -307 -121 -124 -122 0
310 307 -121 0
310 -307 121 0
-310 307 121 0
-310 -307 -121 0
309 124 -122 0
309 -124 122 0
-309 124 122 0
-309 -124 -122 0
-311 310 0
-311 120 0
-311 119 -122 0
-311 -119 122 0
311 -310 119 122 -120 0
311 -310 -119 -122 -120 0
313 310 -119 0
313 -310 119 0
-313 310 119 0
-313 -310 -119 0
312 122 -120 0
312 -122 120 0
-312 122 120 0
-312 -122 -120 0
-314 313 0
-314 118 0
-314 117 -120 0
-314 -117 120 0
314 -313 117 120 -118 0
314 -313 -117 -120 -118 0
316 313 -117 0
316 -313 117 0
-316 313 117 0
-316 -313 -117 0
315 120 -118 0
315 -120 118 0
-315 120 118 0
-315 -120 -118 0
-317 316 0
-317 116 0
-317 115 -118 0
-317 -115 118 0
317 -316 115 118 -116 0
317 -316 -115 -118 -116 0
319 316 -115 0
319 -316 115 0
-319 316 115 0
-319 -316 -115 0
318 118 -116 0
318 -118 116 0
-318 118 116 0
-318 -118 -116 0
-320 319 0
-320 114 0
-320 113 -116 0
-320 -113 116 0
320 -319 113 116 -114 0
320 -319 -113 -116 -114 0
322 319 -113 0
322 -319 113 0
-322 319 113 0
-322 -319 -113 0
321 116 -114 0
321 -116 114 0
-321 116 114 0
-321 -116 -114 0
-323 322 0
-323 112 0
-323 111 -114 0
-323 -111 114 0
323 -322 111 114 -112 0
323 -322 -111 -114 -112 0
325 322 -111 0
325 -322 111 0
-325 322 111 0
-325 -322 -111 0
324 114 -112 0
324 -114 112 0
-324 114 112 0
-324 -114 -112 0
-326 325 0
-326 110 0
-326 109 -112 0
-326 -109 112 0
326 -325 109 112 -110 0
326 -325 -109 -112 -110 0
328 325 -109 0
328 -325 109 0
-328 325 109 0
-328 -325 -109 0
327 112 -110 0
327 -112 110 0
-327 112 110 0
-327 -112 -110 0
-329 328 0
-329 108 0
-329 107 -110 0
-329 -107 110 0
329 -328 107 110 -108 0
329 -328 -107 -110 -108 0
331 328 -107 0
331 -328 107 0
-331 328 107 0
-331 -328 -107 0
330 110 -108 0
330 -110 108 0
-330 110 108 0
-330 -110 -108 0
-332 331 0
-332 106 0
-332 105 -108 0
-332 -105 108 0
332 -331 105 108 -106 0
332 -331 -105 -108 -106 0
334 331 -105 0
334 -331 105 0
-334 331 105 0
-334 -331 -105 0
333 108 -106 0
333 -108 106 0
-333 108 106 0
-333 -108 -106 0
-335 334 0
-335 104 0
-335 103 -106 0
-335 -103 106 0
335 -334 103 106 -104 0
335 -334 -103 -106 -104 0
337 334 -103 0
337 -334 103 0
-337 334 103 0
-337 -334 -103 0
336 106 -104 0
336 -106 104 0
-336 106 104 0
-336 -106 -104 0
-338 337 0
-338 102 0
-338 101 -104 0
-338 -101 104 0
338 -337 101 104 -102 0
338 -337 -101 -104 -102 0
340 337 -101 0
340 -337 101 0
-340 337 101 0
-340 -337 -101 0
339 104 -102 0
339 -104 102 0
-339 104 102 0
-339 -104 -102 0
-341 340 0
-341 100 0
-341 99 -102 0
-341 -99 102 0
341 -340 99 102 -100 0
341 -340 -99 -102 -100 0
343 340 -99 0
343 -340 99 0
-343 340 99 0
-343 -340 -99 0
342 102 -100 0
342 -102 100 0
-342 102 100 0
-342 -102 -100 0
-344 343 0
-344 98 0
-344 97 -100 0
-344 -97 100 0
344 -343 97 100 -98 0
344 -343 -97 -100 -98 0
346 343 -97 0
346 -343 97 0
-346 343 97 0
-346 -343 -97 0
345 100 -98 0
345 -100 98 0
-345 100 98 0
-345 -100 -98 0
-347 346 0
-347 96 0
-347 95 -98 0
-347 -95 98 0
347 -346 95 98 -96 0
347 -346 -95 -98 -96 0
349 346 -95 0
349 -346 95 0
-349 346 95 0
-349 -346 -95 0
348 98 -96 0
348 -98 96 0
-348 98 96 0
-348 -98 -96 0
-350 349 0
-350 94 0
-350 93 -96 0
-350 -93 96 0
350 -349 93 96 -94 0
350 -349 -93 -96 -94 0
352 349 -93 0
352 -349 93 0
-352 349 93 0
-352 -349 -93 0
351 96 -94 0
351 -96 94 0
-351 96 94 0
-351 -96 -94 0
-353 352 0
-353 92 0
-353 91 -94 0
-353 -91 94 0
353 -352 91 94 -92 0
353 -352 -91 -94 -92 0
355 352 -91 0
355 -352 91 0
-355 352 91 0
-355 -352 -91 0
354 94 -92 0
354 -94 92 0
-354 94 92 0
-354 -94 -92 0
-356 355 0
-356 90 0
-356 89 -92 0
-356 -89 92 0
356 -355 89 92 -90 0
356 -355 -89 -92 -90 0
358 355 -89 0
358 -355 89 0
-358 355 89 0
-358 -355 -89 0
357 92 -90 0
357 -92 90 0
-357 92 90 0
-357 -92 -90 0
-359 358 0
-359 88 0
-359 87 -90 0
-359 -87 90 0
359 -358 87 90 -88 0
359 -358 -87 -90 -88 0
361 358 -87 0
361 -358 87 0
-361 358 87 0
-361 -358 -87 0
360 90 -88 0
360 -90 88 0
-360 90 88 0
-360 -90 -88 0
-362 361 0
-362 86 0
-362 85 -88 0
-362 -85 88 0
362 -361 85 88 -86 0
362 -361 -85 -88 -86 0
364 361 -85 0
364 -361 85 0
-364 361 85 0
-364 -361 -85 0
363 88 -86 0
363 -88 86 0
-363 88 86 0
-363 -88 -86 0
-365 364 0
-365 84 0
-365 83 -86 0
-365 -83 86 0
365 -364 83 86 -84 0
365 -364 -83 -86 -84 0
367 364 -83 0
367 -364 83 0
-367 364 83 0
-367 -364 -83 0
366 86 -84 0
366 -86 84 0
-366 86 84 0
-366 -86 -84 0
-368 367 0
-368 82 0
-368 81 -84 0
-368 -81 84 0
368 -367 81 84 -82 0
368 -367 -81 -84 -82 0
370 367 -81 0
370 -367 81 0
-370 367 81 0
-370 -367 -81 0
369 84 -82 0
369 -84 82 0
-369 84 82 0
-369 -84 -82 0
-371 370 0
-371 80 0
-371 79 -82 0
-371 -79 82 0
371 -370 79 82 -80 0
371 -370 -79 -82 -80 0
373 370 -79 0
373 -370 79 0
-373 370 79 0
-373 -370 -79 0
372 82 -80 0
372 -82 80 0
-372 82 80 0
-372 -82 -80 0
-374 373 0
-374 78 0
-374 77 -80 0
-374 -77 80 0
374 -373 77 80 -78 0
374 -373 -77 -80 -78 0
376 373 -77 0
376 -373 77 0
-376 373 77 0
-376 -373 -77 0
375 80 -78 0
375 -80 78 0
-375 80 78 0
-375 -80 -78 0
-377 376 0
-377 76 0
-377 75 -78 0
-377 -75 78 0
377 -376 75 78 -76 0
377 -376 -75 -78 -76 0
379 376 -75 0
379 -376 75 0
-379 376 75 0
-379 -376 -75 0
378 78 -76 0
378 -78 76 0
-378 78 76 0
-378 -78 -76 0
-380 379 0
-380 74 0
-380 73 -76 0
-380 -73 76 0
380 -379 73 76 -74 0
380 -379 -73 -76 -74 0
382 379 -73 0
382 -379 73 0
-382 379 73 0
-382 -379 -73 0
381 76 -74 0
381 -76 74 0
-381 76 74 0
-381 -76 -74 0
-383 382 0
-383 72 0
-383 71 -74 0
-383 -71 74 0
383 -382 71 74 -72 0
383 -382 -71 -74 -72 0
385 382 -71 0
385 -382 71 0
-385 382 71 0
-385 -382 -71 0
384 74 -72 0
384 -74 72 0
-384 74 72 0
-384 -74 -72 0
-386 385 0
-386 70 0
-386 69 -72 0
-386 -69 72 0
386 -385 69 72 -70 0
386 -385 -69 -72 -70 0
388 385 -69 0
388 -385 69 0
-388 385 69 0
-388 -385 -69 0
387 72 -70 0
387 -72 70 0
-387 72 70 0
-387 -72 -70 0
-389 388 0
-389 68 0
-389 67 -70 0
-389 -67 70 0
389 -388 67 70 -68 0
389 -388 -67 -70 -68 0
391 388 -67 0
391 -388 67 0
-391 388 67 0
-391 -388 -67 0
390 70 -68 0
390 -70 68 0
-390 70 68 0
-390 -70 -68 0
-392 391 0
-392 66 0
-392 65 -68 0
-392 -65 68 0
392 -391 65 68 -66 0
392 -391 -65 -68 -66 0
394 391 -65 0
394 -391 65 0
-394 391 65 0
-394 -391 -65 0
393 68 -66 0
393 -68 66 0
-393 68 66 0
-393 -68 -66 0
-395 394 0
-395 64 0
-395 63 -66 0
-395 -63 66 0
395 -394 63 66 -64 0
395 -394 -63 -66 -64 0
397 394 -63 0
397 -394 63 0
-397 394 63 0
-397 -394 -63 0
396 66 -64 0
396 -66 64 0
-396 66 64 0
-396 -66 -64 0
-398 397 0
-398 62 0
-398 61 -64 0
-398 -61 64 0
398 -397 61 64 -62 0
398 -397 -61 -64 -62 0
400 397 -61 0
400 -397 61 0
-400 397 61 0
-400 -397 -61 0
399 64 -62 0
399 -64 62 0
-399 64 62 0
-399 -64 -62 0
-401 400 0
-401 60 0
-401 59 -62 0
-401 -59 62 0
401 -400 59 62 -60 0
401 -400 -59 -62 -60 0
403 400 -59 0
403 -400 59 0
-403 400 59 0
-403 -400 -59 0
402 62 -60 0
402 -62 60 0
-402 62 60 0
-402 -62 -60 0
-404 403 0
-404 58 0
-404 57 -60 0
-404 -57 60 0
404 -403 57 60 -58 0
404 -403 -57 -60 -58 0
406 403 -57 0
406 -403 57 0
-406 403 57 0
-406 -403 -57 0
405 60 -58 0
405 -60 58 0
-405 60 58 0
-405 -60 -58 0
-407 406 0
-407 56 0
-407 55 -58 0
-407 -55 58 0
407 -406 55 58 -56 0
407 -406 -55 -58 -56 0
409 406 -55 0
409 -406 55 0
-409 406 55 0
-409 -406 -55 0
408 58 -56 0
408 -58 56 0
-408 58 56 0
-408 -58 -56 0
-410 409 0
-410 54 0
-410 53 -56 0
-410 -53 56 0
410 -409 53 56 -54 0
410 -409 -53 -56 -54 0
412 409 -53 0
412 -409 53 0
-412 409 53 0
-412 -409 -53 0
411 56 -54 0
411 -56 54 0
-411 56 54 0
-411 -56 -54 0
-413 412 0
-413 52 0
-413 51 -54 0
-413 -51 54 0
413 -412 51 54 -52 0
413 -412 -51 -54 -52 0
415 412 -51 0
415 -412 51 0
-415 412 51 0
-415 -412 -51 0
414 54 -52 0
414 -54 52 0
-414 54 52 0
-414 -54 -52 0
-416 415 0
-416 50 0
-416 49 -52 0
-416 -49 52 0
416 -415 49 52 -50 0
416 -415 -49 -52 -50 0
418 415 -49 0
418 -415 49 0
-418 415 49 0
-418 -415 -49 0
417 52 -50 0
417 -52 50 0
-417 52 50 0
-417 -52 -50 0
-419 418 0
-419 48 0
-419 47 -50 0
-419 -47 50 0
419 -418 47 50 -48 0
419 -418 -47 -50 -48 0
421 418 -47 0
421 -418 47 0
-421 418 47 0
-421 -418 -47 0
420 50 -48 0
420 -50 48 0
-420 50 48 0
-420 -50 -48 0
-422 421 0
-422 46 0
-422 45 -48 0
-422 -45 48 0
422 -421 45 48 -46 0
422 -421 -45 -48 -46 0
424 421 -45 0
424 -421 45 0
-424 421 45 0
-424 -421 -45 0
423 48 -46 0
423 -48 46 0
-423 48 46 0
-423 -48 -46 0
-425 424 0
-425 44 0
-425 43 -46 0
-425 -43 46 0
425 -424 43 46 -44 0
425 -424 -43 -46 -44 0
427 424 -43 0
427 -424 43 0
-427 424 43 0
-427 -424 -43 0
426 46 -44 0
426 -46 44 0
-426 46 44 0
-426 -46 -44 0
-428 427 0
-428 42 0
-428 41 -44 0
-428 -41 44 0
428 -427 41 44 -42 0
428 -427 -41 -44 -42 0
430 427 -41 0
430 -427 41 0
-430 427 41 0
-430 -427 -41 0
429 44 -42 0
429 -44 42 0
-429 44 42 0
-429 -44 -42 0
-431 430 0
-431 40 0
-431 39 -42 0
-431 -39 42 0
431 -430 39 42 -40 0
431 -430 -39 -42 -40 0
433 430 -39 0
433 -430 39 0
-433 430 39 0
-433 -430 -39 0
432 42 -40 0
432 -42 40 0
-432 42 40 0
-432 -42 -40 0
-434 433 0
-434 38 0
-434 37 -40 0
-434 -37 40 0
434 -433 37 40 -38 0
434 -433 -37 -40 -38 0
436 433 -37 0
436 -433 37 0
-436 433 37 0
-436 -433 -37 0
435 40 -38 0
435 -40 38 0
-435 40 38 0
-435 -40 -38 0
-437 436 0
-437 36 0
-437 35 -38 0
-437 -35 38 0
437 -436 35 38 -36 0
437 -436 -35 -38 -36 0
439 436 -35 0
439 -436 35 0
-439 436 35 0
-439 -436 -35 0
438 38 -36 0
438 -38 36 0
-438 38 36 0
-438 -38 -36 0
-440 439 0
-440 34 0
-440 33 -36 0
-440 -33 36 0
440 -439 33 36 -34 0
440 -439 -33 -36 -34 0
442 439 -33 0
442 -439 33 0
-442 439 33 0
-442 -439 -33 0
441 36 -34 0
441 -36 34 0
-441 36 34 0
-441 -36 -34 0
-443 442 0
-443 32 0
-443 31 -34 0
-443 -31 34 0
443 -442 31 34 -32 0
443 -442 -31 -34 -32 0
445 442 -31 0
445 -442 31 0
-445 442 31 0
-445 -442 -31 0
444 34 -32 0
444 -34 32 0
-444 34 32 0
-444 -34 -32 0
-446 445 0
-446 30 0
-446 29 -32 0
-446 -29 32 0
446 -445 29 32 -30 0
446 -445 -29 -32 -30 0
448 445 -29 0
448 -445 29 0
-448 445 29 0
-448 -445 -29 0
447 32 -30 0
447 -32 30 0
-447 32 30 0
-447 -32 -30 0
-449 448 0
-449 28 0
-449 27 -30 0
-449 -27 30 0
449 -448 27 30 -28 0
449 -448 -27 -30 -28 0
451 448 -27 0
451 -448 27 0
-451 448 27 0
-451 -448 -27 0
450 30 -28 0
450 -30 28 0
-450 30 28 0
-450 -30 -28 0
-452 451 0
-452 26 0
-452 25 -28 0
-452 -25 28 0
452 -451 25 28 -26 0
452 -451 -25 -28 -26 0
454 451 -25 0
454 -451 25 0
-454 451 25 0
-454 -451 -25 0
453 28 -26 0
453 -28 26 0
-453 28 26 0
-453 -28 -26 0
-455 454 0
-455 24 0
-455 23 -26 0
-455 -23 26 0
455 -454 23 26 -24 0
455 -454 -23 -26 -24 0
457 454 -23 0
457 -454 23 0
-457 454 23 0
-457 -454 -23 0
456 26 -24 0
456 -26 24 0
-456 26 24 0
-456 -26 -24 0
-458 457 0
-458 22 0
-458 21 -24 0
-458 -21 24 0
458 -457 21 24 -22 0
458 -457 -21 -24 -22 0
460 457 -21 0
460 -457 21 0
-460 457 21 0
-460 -457 -21 0
459 24 -22 0
459 -24 22 0
-459 24 22 0
-459 -24 -22 0
-461 460 0
-461 20 0
-461 19 -22 0
-461 -19 22 0
461 -460 19 22 -20 0
461 -460 -19 -22 -20 0
463 460 -19 0
463 -460 19 0
-463 460 19 0
-463 -460 -19 0
462 22 -20 0
462 -22 20 0
-462 22 20 0
-462 -22 -20 0
-464 463 0
-464 18 0
-464 17 -20 0
-464 -17 20 0
464 -463 17 20 -18 0
464 -463 -17 -20 -18 0
466 463 -17 0
466 -463 17 0
-466 463 17 0
-466 -463 -17 0
465 20 -18 0
465 -20 18 0
-465 20 18 0
-465 -20 -18 0
-467 466 0
-467 16 0
-467 15 -18 0
-467 -15 18 0
467 -466 15 18 -16 0
467 -466 -15 -18 -16 0
469 466 -15 0
469 -466 15 0
-469 466 15 0
-469 -466 -15 0
468 18 -16 0
468 -18 16 0
-468 18 16 0
-468 -18 -16 0
-470 469 0
-470 14 0
-470 13 -16 0
-470 -13 16 0
470 -469 13 16 -14 0
470 -469 -13 -16 -14 0
472 469 -13 0
472 -469 13 0
-472 469 13 0
-472 -469 -13 0
471 16 -14 0
471 -16 14 0
-471 16 14 0
-471 -16 -14 0
-473 472 0
-473 12 0
-473 11 -14 0
-473 -11 14 0
473 -472 11 14 -12 0
473 -472 -11 -14 -12 0
475 472 -11 0
475 -472 11 0
-475 472 11 0
-475 -472 -11 0
474 14 -12 0
474 -14 12 0
-474 14 12 0
-474 -14 -12 0
-476 475 0
-476 10 0
-476 9 -12 0
-476 -9 12 0
476 -475 9 12 -10 0
476 -475 -9 -12 -10 0
478 475 -9 0
478 -475 9 0
-478 475 9 0
-478 -475 -9 0
477 12 -10 0
477 -12 10 0
-477 12 10 0
-477 -12 -10 0
-479 478 0
-479 8 0
-479 7 -10 0
-479 -7 10 0
479 -478 7 10 -8 0
479 -478 -7 -10 -8 0
481 478 -7 0
481 -478 7 0
-481 478 7 0
-481 -478 -7 0
480 10 -8 0
480 -10 8 0
-480 10 8 0
-480 -10 -8 0
-482 481 0
-482 6 0
-482 5 -8 0
-482 -5 8 0
482 -481 5 8 -6 0
482 -481 -5 -8 -6 0
484 481 -5 0
484 -481 5 0
-484 481 5 0
-484 -481 -5 0
483 8 -6 0
483 -8 6 0
-483 8 6 0
-483 -8 -6 0
-485 484 0
-485 4 0
-485 3 -6 0
-485 -3 6 0
485 -484 3 6 -4 0
485 -484 -3 -6 -4 0
487 484 -3 0
487 -484 3 0
-487 484 3 0
-487 -484 -3 0
486 6 -4 0
486 -6 4 0
-486 6 4 0
-486 -6 -4 0
-488 487 0
-488 2 0
-488 1 -4 0
-488 -1 4 0
488 -487 1 4 -2 0
488 -487 -1 -4 -2 0
490 487 -1 0
490 -487 1 0
-490 487 1 0
-490 -487 -1 0
489 4 -2 0
489 -4 2 0
-489 4 2 0
-489 -4 -2 0
-490 0
-487 0
-489 0
-484 0
-486 0
-481 0
-483 0
-478 0
-480 0
-475 0
-477 0
-472 0
-474 0
-469 0
-471 0
-466 0
-468 0
-463 0
-465 0
-460 0
-462 0
-457 0
-459 0
-454 0
-456 0
-451 0
-453 0
-448 0
-450 0
-445 0
-447 0
-442 0
-444 0
-439 0
-441 0
-436 0
-438 0
-433 0
-435 0
-430 0
-432 0
-427 0
-429 0
-424 0
-426 0
-421 0
-423 0
-418 0
-420 0
-415 0
-417 0
-412 0
-414 0
-409 0
-411 0
-406 0
-408 0
-403 0
-405 0
-400 0
-402 0
-397 0
-399 0
-394 0
-396 0
-391 0
-393 0
-388 0
-390 0
-385 0
-387 0
-382 0
-384 0
-379 0
-381 0
-376 0
-378 0
-373 0
-375 0
-370 0
-372 0
-367 0
-369 0
-364 0
-366 0
-361 0
-363 0
-358 0
-360 0
-355 0
-357 0
-352 0
-354 0
-349 0
-351 0
-346 0
-348 0
-343 0
-345 0
-340 0
-342 0
-337 0
-339 0
-334 0
-336 0
-331 0
-333 0
-328 0
-330 0
-325 0
-327 0
-322 0
-324 0
-319 0
-321 0
-316 0
-318 0
-313 0
-315 0
-310 0
-312 0
-307 0
-309 0
-304 0
-306 0
-301 0
-303 0
-298 0
-300 0
-295 0
-297 0
-292 0
-294 0
-289 0
-291 0
-286 0
-288 0
-283 0
-285 0
-280 0
-282 0
-277 0
-279 0
-274 0
-276 0
-271 0
-273 0
-268 0
-270 0
-265 0
-267 0
-262 0
-264 0
-259 0
-261 0
-256 0
-258 0
-253 0
-255 0
-250 0
-252 0
-247 0
-249 0
-244 0
-246 0
-241 0
-243 0
-238 0
-240 0
-235 0
-237 0
-232 0
-234 0
-229 0
-231 0
-226 0
-228 0
-223 0
-225 0
-220 0
-222 0
-217 0
-219 0
-214 0
-216 0
-211 0
-213 0
-208 0
-210 0
-205 0
-207 0
-198 0
-204 0
